Number of cities: 25
Route #1: 1 10 9 8 12 6 11 21 22 19 5 4 20 15 13 17 1
Route #2: 1 2 16 18 24 25 23 1
Route #3: 1 3 14 1
Route #4: 1 7 1

COST: 1093708.9885429256

PARAM: ALPHA=1.0 BETA=4.0 RO=0.1 | MAX_CYCLE_PARAM=1 SPEED=5 DISP_LEVEL=2

Started: 2018-12-27 23:16:32, Ended: 2018-12-27 23:17:18 Duration: 46 sec